k = 50;
b = 25;
AtomicConstraints =  [|
1, 2|
	3, 1|
	3, 2|
	3, 36|
	3, 27|
	3, 12|
	3, 13|
	4, 1|
	4, 2|
	4, 36|
	4, 27|
	4, 12|
	4, 13|
	5, 1|
	5, 2|
	5, 36|
	5, 27|
	5, 16|
	5, 17|
	5, 18|
	5, 45|
	5, 48|
	6, 1|
	6, 2|
	6, 36|
	6, 27|
	6, 16|
	6, 17|
	6, 18|
	6, 45|
	6, 48|
	7, 1|
	7, 2|
	7, 36|
	7, 27|
	7, 16|
	7, 17|
	7, 18|
	7, 45|
	7, 48|
	8, 1|
	8, 2|
	8, 27|
	8, 16|
	8, 17|
	8, 18|
	8, 45|
	8, 48|
	9, 1|
	9, 2|
	9, 27|
	9, 16|
	9, 17|
	9, 18|
	9, 45|
	9, 48|
	10, 1|
	10, 2|
	10, 16|
	10, 17|
	10, 18|
	10, 45|
	10, 48|
	11, 1|
	11, 2|
	11, 36|
	11, 27|
	11, 12|
	11, 13|
	11, 26|
	11, 14|
	11, 15|
	11, 38|
	11, 40|
	11, 37|
	11, 39|
	11, 43|
	11, 19|
	11, 42|
	11, 20|
	11, 21|
	11, 41|
	11, 22|
	11, 23|
	11, 29|
	11, 28|
	11, 24|
	11, 25|
	11, 35|
	36, 2|
	27, 2|
	12, 2|
	12, 36|
	12, 27|
	13, 2|
	13, 36|
	13, 27|
	14, 26|
	15, 26|
	15, 14|
	16, 1|
	16, 2|
	17, 2|
	18, 2|
	38, 2|
	38, 26|
	38, 14|
	38, 15|
	38, 31|
	38, 37|
	38, 39|
	38, 34|
	38, 43|
	38, 19|
	38, 33|
	38, 42|
	38, 20|
	38, 21|
	38, 32|
	38, 41|
	38, 22|
	38, 23|
	38, 24|
	38, 25|
	38, 35|
	40, 2|
	40, 26|
	40, 14|
	40, 15|
	40, 37|
	40, 39|
	40, 43|
	40, 19|
	40, 42|
	40, 20|
	40, 21|
	40, 41|
	40, 22|
	40, 23|
	40, 24|
	40, 25|
	40, 35|
	31, 26|
	31, 14|
	31, 15|
	31, 34|
	31, 43|
	31, 33|
	31, 42|
	31, 20|
	31, 21|
	31, 32|
	31, 41|
	31, 22|
	31, 23|
	31, 25|
	31, 35|
	37, 26|
	37, 14|
	37, 15|
	37, 34|
	37, 43|
	37, 19|
	37, 33|
	37, 42|
	37, 20|
	37, 21|
	37, 32|
	37, 41|
	37, 22|
	37, 23|
	37, 25|
	37, 35|
	39, 26|
	39, 14|
	39, 15|
	39, 43|
	39, 19|
	39, 42|
	39, 20|
	39, 21|
	39, 41|
	39, 22|
	39, 23|
	39, 24|
	39, 25|
	39, 35|
	34, 26|
	34, 14|
	34, 15|
	34, 33|
	34, 42|
	34, 20|
	34, 21|
	34, 32|
	34, 41|
	34, 22|
	34, 23|
	34, 25|
	34, 35|
	43, 26|
	43, 14|
	43, 15|
	43, 33|
	43, 42|
	43, 20|
	43, 21|
	43, 32|
	43, 41|
	43, 22|
	43, 23|
	43, 25|
	43, 35|
	19, 26|
	19, 14|
	19, 15|
	19, 42|
	19, 20|
	19, 21|
	19, 41|
	19, 22|
	19, 23|
	19, 25|
	19, 35|
	33, 26|
	33, 14|
	33, 15|
	33, 32|
	33, 41|
	33, 23|
	33, 35|
	42, 26|
	42, 14|
	42, 15|
	42, 32|
	42, 41|
	42, 22|
	42, 23|
	42, 35|
	20, 26|
	20, 14|
	20, 15|
	20, 41|
	20, 22|
	20, 23|
	20, 35|
	21, 26|
	21, 14|
	21, 15|
	21, 41|
	21, 22|
	21, 23|
	21, 35|
	32, 26|
	32, 14|
	32, 15|
	32, 23|
	32, 35|
	41, 26|
	41, 14|
	41, 15|
	41, 23|
	41, 35|
	22, 26|
	22, 14|
	22, 15|
	22, 23|
	22, 35|
	23, 26|
	23, 14|
	23, 15|
	23, 35|
	29, 2|
	29, 26|
	29, 40|
	29, 39|
	29, 19|
	29, 21|
	29, 22|
	29, 23|
	29, 28|
	29, 24|
	29, 25|
	29, 35|
	28, 2|
	28, 26|
	28, 39|
	28, 19|
	28, 21|
	28, 22|
	28, 23|
	28, 24|
	28, 25|
	28, 35|
	24, 26|
	24, 19|
	24, 21|
	24, 22|
	24, 23|
	24, 25|
	24, 35|
	25, 26|
	25, 22|
	25, 23|
	25, 35|
	35, 26|
	30, 26|
	30, 14|
	30, 15|
	30, 31|
	30, 37|
	30, 39|
	30, 34|
	30, 43|
	30, 19|
	30, 33|
	30, 42|
	30, 20|
	30, 21|
	30, 32|
	30, 41|
	30, 22|
	30, 23|
	30, 24|
	30, 25|
	30, 35|
	45, 1|
	45, 2|
	45, 16|
	45, 17|
	45, 18|
	48, 1|
	48, 2|
	48, 16|
	48, 17|
	48, 18|
	46, 1|
	46, 2|
	46, 3|
	46, 4|
	46, 11|
	46, 36|
	46, 27|
	46, 12|
	46, 13|
	46, 26|
	46, 14|
	46, 15|
	46, 38|
	46, 40|
	46, 31|
	46, 37|
	46, 39|
	46, 34|
	46, 43|
	46, 19|
	46, 33|
	46, 42|
	46, 20|
	46, 21|
	46, 32|
	46, 41|
	46, 22|
	46, 23|
	46, 29|
	46, 28|
	46, 24|
	46, 25|
	46, 35|
	46, 30|
	44, 1|
	44, 2|
	44, 3|
	44, 4|
	44, 11|
	44, 36|
	44, 27|
	44, 12|
	44, 13|
	44, 26|
	44, 14|
	44, 15|
	44, 38|
	44, 40|
	44, 31|
	44, 37|
	44, 39|
	44, 34|
	44, 43|
	44, 19|
	44, 33|
	44, 42|
	44, 20|
	44, 21|
	44, 32|
	44, 41|
	44, 22|
	44, 23|
	44, 29|
	44, 28|
	44, 24|
	44, 25|
	44, 35|
	44, 30|
	49, 1|
	49, 2|
	49, 3|
	49, 4|
	49, 11|
	49, 36|
	49, 27|
	49, 12|
	49, 13|
	49, 26|
	49, 14|
	49, 15|
	49, 38|
	49, 40|
	49, 37|
	49, 39|
	49, 34|
	49, 43|
	49, 19|
	49, 33|
	49, 42|
	49, 20|
	49, 21|
	49, 32|
	49, 41|
	49, 22|
	49, 23|
	49, 29|
	49, 28|
	49, 24|
	49, 25|
	49, 35|
	50, 1|
	50, 2|
	50, 3|
	50, 4|
	50, 11|
	50, 36|
	50, 27|
	50, 12|
	50, 13|
	50, 26|
	50, 40|
	50, 39|
	50, 43|
	50, 19|
	50, 42|
	50, 20|
	50, 21|
	50, 41|
	50, 22|
	50, 23|
	50, 29|
	50, 28|
	50, 24|
	50, 25|
	50, 35|
	47, 1|
	47, 2|
	47, 3|
	47, 4|
	47, 36|
	47, 27|
	47, 12|
	47, 13|
	47, 26|
	47, 16|
	47, 23|
	47, 29|
	47, 28|
	47, 24|
	47, 25|
	47, 35|];
DisjunctiveConstraints =  [|6, 5, 6, 7|
	7, 6, 7, 8|
	7, 36, 7, 11|
	8, 7, 8, 9|
	9, 2, 9, 27|
	9, 8, 9, 10|
	11, 14, 11, 39|
	11, 15, 11, 40|
	11, 38, 11, 13|
	11, 31, 6, 11|
	11, 37, 11, 12|
	11, 34, 9, 11|
	11, 33, 8, 11|
	11, 32, 7, 11|
	15, 1, 15, 26|
	17, 1, 26, 17|
	17, 16, 17, 18|
	38, 16, 38, 41|
	38, 17, 38, 42|
	38, 30, 38, 40|
	40, 20, 45, 40|
	40, 23, 40, 48|
	37, 16, 37, 41|
	37, 31, 37, 39|
	39, 23, 39, 48|
	43, 34, 43, 19|
	19, 23, 19, 48|
	42, 33, 42, 20|
	20, 14, 20, 39|
	20, 15, 20, 40|
	20, 42, 20, 21|
	41, 32, 41, 22|
	23, 1, 23, 26|
	29, 1, 29, 26|
	29, 15, 40, 29|
	29, 23, 48, 29|
	29, 35, 29, 10|
	28, 1, 28, 26|
	28, 15, 40, 28|
	28, 23, 48, 28|
	28, 35, 28, 10|
	24, 1, 24, 26|
	24, 14, 39, 24|
	24, 15, 40, 24|
	25, 14, 39, 25|
	25, 15, 40, 25|
	35, 14, 39, 35|
	35, 15, 40, 35|
	44, 31, 44, 6|
	44, 34, 44, 9|
	44, 33, 44, 8|
	44, 32, 44, 7|
	44, 30, 44, 5|
	44, 46, 44, 49|
	49, 14, 49, 39|
	49, 15, 49, 40|
	49, 38, 49, 13|
	49, 37, 49, 12|
	49, 30, 5, 49|
	49, 44, 49, 50|
	50, 16, 50, 41|
	50, 17, 50, 42|
	50, 18, 50, 43|
	50, 23, 50, 48|
	50, 24, 50, 49|
	50, 49, 50, 47|
	47, 1, 47, 26|
	47, 38, 13, 47|
	47, 40, 15, 47|
	47, 37, 12, 47|
	47, 20, 45, 47|];
SoftAtomicConstraints =  [|
11, 3|
3, 4|
47, 5|
5, 6|
6, 7|
7, 8|
8, 9|
9, 10|
13, 12|
16, 17|
17, 18|
43, 19|
42, 20|
20, 21|
41, 22|
27, 36|
31, 37|
30, 38|
37, 39|
38, 40|
32, 41|
33, 42|
34, 43|
46, 44|
48, 45|
50, 47|
44, 49|
49, 50|];
DirectSuccessors =  [2,
11,
36,
27];
